c turning on binary mode checking
c parsing input formula with 202048 variables and 780980 clauses
c finished parsing, read 1990775 bytes from proof file
c detected empty clause; start verification via backward checking
c 4283 of 780980 clauses in core                            
c 1477 of 80534 lemmas in core using 49250 resolution steps
c 0 RAT lemmas in core; 277 redundant literals in core lemmas
s VERIFIED
c verification time: 1.022 seconds
